(declare-fun temp10401_1 () (_ BitVec 64))
(declare-fun var80340 () (_ BitVec 64))
(declare-fun k!0 () Bool)
(declare-fun ARGNAME_dims_self_NAMEEND_LEN () (_ BitVec 64))
(declare-fun ARGNAME_dims_other_NAMEEND_LEN () (_ BitVec 64))
(declare-fun temp10401_3 () (_ BitVec 64))
(declare-fun temp10401_2 () (_ BitVec 64))
(declare-fun var203926 () (_ BitVec 64))
(declare-fun temp10401_4 () (_ BitVec 64))
(declare-fun temp10401_5 () (_ BitVec 64))
(declare-fun var272546 () (_ BitVec 64))
(declare-fun var338093 () (_ BitVec 64))
(declare-fun var136036 () (_ BitVec 64))
(declare-fun temp10401_6 () (_ BitVec 64))
(declare-fun var80413 () (_ BitVec 64))
(declare-fun var80394 () (_ BitVec 64))
(declare-fun var80393 () (_ BitVec 64))
(declare-fun temp10401_7 () (_ BitVec 64))
(declare-fun ARGNAME_input_NAMEEND_DIM () (_ BitVec 64))
(declare-fun var1187199 () (_ BitVec 64))
(declare-fun temp10401_8 () (_ BitVec 64))
(declare-fun temp10401_10 () (_ BitVec 64))
(declare-fun temp10401_9 () (_ BitVec 64))
(declare-fun temp10401_12 () (_ BitVec 64))
(declare-fun temp10401_11 () (_ BitVec 64))
(declare-fun temp10401_13 () (_ BitVec 64))
(declare-fun var1779874 () (_ BitVec 64))
(declare-fun var1845421 () (_ BitVec 64))
(declare-fun temp10401_14 () (_ BitVec 64))
(declare-fun ARGNAME_other_NAMEEND_DIM () (_ BitVec 64))
(declare-fun var2301311 () (_ BitVec 64))
(declare-fun temp10401_15 () (_ BitVec 64))
(declare-fun temp10401_17 () (_ BitVec 64))
(declare-fun temp10401_16 () (_ BitVec 64))
(declare-fun temp10401_19 () (_ BitVec 64))
(declare-fun temp10401_18 () (_ BitVec 64))
(declare-fun temp10401_20 () (_ BitVec 64))
(declare-fun var2893986 () (_ BitVec 64))
(declare-fun var2959533 () (_ BitVec 64))
(declare-fun temp10401_21 () (_ BitVec 64))
(declare-fun var3744839 () (_ BitVec 64))
(declare-fun var80583 () (_ BitVec 64))
(declare-fun var80585 () (_ BitVec 64))
(declare-fun temp10401_23 () (_ BitVec 64))
(declare-fun temp10401_22 () (_ BitVec 64))
(declare-fun var5051380 () (_ BitVec 64))
(declare-fun temp10401_24 () (_ BitVec 64))
(declare-fun temp10401_25 () (_ BitVec 64))
(declare-fun var5121045 () (_ BitVec 64))
(declare-fun var5186592 () (_ BitVec 64))
(declare-fun var4988446 () (_ BitVec 64))
(declare-fun temp10401_26 () (_ BitVec 64))
(declare-fun var80646 () (_ BitVec 64))
(declare-fun temp10401_27 () (_ BitVec 64))
(declare-fun var6169053 () (_ BitVec 64))
(declare-fun var6169065 () (_ BitVec 64))
(declare-fun temp10401_29 () (_ BitVec 64))
(declare-fun temp10401_28 () (_ BitVec 64))
(declare-fun var8459252 () (_ BitVec 64))
(declare-fun temp10401_30 () (_ BitVec 64))
(declare-fun temp10401_31 () (_ BitVec 64))
(declare-fun var8528917 () (_ BitVec 64))
(declare-fun var8594464 () (_ BitVec 64))
(declare-fun var8396318 () (_ BitVec 64))
(declare-fun temp10401_32 () (_ BitVec 64))
(declare-fun var80775 () (_ BitVec 64))
(declare-fun temp10401_33 () (_ BitVec 64))
(declare-fun var9576925 () (_ BitVec 64))
(declare-fun var9576937 () (_ BitVec 64))
(declare-fun temp10401_35 () (_ BitVec 64))
(declare-fun temp10401_34 () (_ BitVec 64))
(declare-fun temp10401_37 () (_ BitVec 64))
(declare-fun temp10401_36 () (_ BitVec 64))
(assert (= var80340
   (ite (= ARGNAME_dims_self_NAMEEND_LEN ARGNAME_dims_other_NAMEEND_LEN)
        #x0000000000000001
        #x0000000000000000)))
(assert (= temp10401_1 #x0000000000000001))
(assert (= var80340 temp10401_1))
(assert (= temp10401_3 #x0000000000000000))
(assert (= temp10401_2 temp10401_3))
(assert (= var203926
   (ite (bvslt temp10401_2 ARGNAME_dims_self_NAMEEND_LEN)
        #x0000000000000001
        #x0000000000000000)))
(assert (= temp10401_4
   (ite (= var203926 #x0000000000000001)
        ARGNAME_dims_self_NAMEEND_LEN
        temp10401_2)))
(assert (= temp10401_5 #x0000000000000000))
(assert (= var272546 temp10401_5))
(assert (= var338093 var272546))
(assert (= var136036 var338093))
(assert (= temp10401_6 #x0000000000000001))
(assert (= var80413 temp10401_6))
(assert (= var80394 var80413))
(assert (= var80393 var80394))
(assert (= temp10401_7 #x0000000000000040))
(assert (= var1187199
   (ite (bvsgt ARGNAME_input_NAMEEND_DIM temp10401_7)
        #x0000000000000001
        #x0000000000000000)))
(assert (= temp10401_8 #x0000000000000000))
(assert (= var1187199 temp10401_8))
(assert (= temp10401_10 #x0000000000000000))
(assert (= temp10401_9 temp10401_10))
(assert (= temp10401_12 #x0000000000000000))
(assert (= temp10401_11 temp10401_12))
(assert (= temp10401_13 #x0000000000000000))
(assert (= var1779874 temp10401_13))
(assert (= var1845421 var1779874))
(assert (= temp10401_14 #x0000000000000040))
(assert (= var2301311
   (ite (bvsgt ARGNAME_other_NAMEEND_DIM temp10401_14)
        #x0000000000000001
        #x0000000000000000)))
(assert (= temp10401_15 #x0000000000000000))
(assert (= var2301311 temp10401_15))
(assert (= temp10401_17 #x0000000000000000))
(assert (= temp10401_16 temp10401_17))
(assert (= temp10401_19 #x0000000000000000))
(assert (= temp10401_18 temp10401_19))
(assert (= temp10401_20 #x0000000000000000))
(assert (= var2893986 temp10401_20))
(assert (= var2959533 var2893986))
(assert (= temp10401_21 #x0000000000000001))
(assert (= var3744839 temp10401_21))
(assert (= var80583 (bvadd ARGNAME_other_NAMEEND_DIM ARGNAME_input_NAMEEND_DIM)))
(assert (= var80585 (bvsub var80583 ARGNAME_dims_self_NAMEEND_LEN)))
(assert (= temp10401_23 #x0000000000000000))
(assert (= temp10401_22 temp10401_23))
(assert (= var5051380
   (ite (bvslt temp10401_22 ARGNAME_input_NAMEEND_DIM)
        #x0000000000000001
        #x0000000000000000)))
(assert (= temp10401_24
   (ite (= var5051380 #x0000000000000001)
        ARGNAME_input_NAMEEND_DIM
        temp10401_22)))
(assert (= temp10401_25 #x0000000000000000))
(assert (= var5121045 temp10401_25))
(assert (= var5186592 var5121045))
(assert (= var4988446 var5186592))
(assert (= temp10401_26 #x0000000000000001))
(assert (= var80646 temp10401_26))
(assert (= temp10401_27 #x0000000000000001))
(assert (= var6169053 temp10401_27))
(assert (= var6169065 var6169053))
(assert (= temp10401_29 #x0000000000000000))
(assert (= temp10401_28 temp10401_29))
(assert (= var8459252
   (ite (bvslt temp10401_28 ARGNAME_other_NAMEEND_DIM)
        #x0000000000000001
        #x0000000000000000)))
(assert (= temp10401_30
   (ite (= var8459252 #x0000000000000001)
        ARGNAME_other_NAMEEND_DIM
        temp10401_28)))
(assert (= temp10401_31 #x0000000000000000))
(assert (= var8528917 temp10401_31))
(assert (= var8594464 var8528917))
(assert (= var8396318 var8594464))
(assert (= temp10401_32 #x0000000000000001))
(assert (= var80775 temp10401_32))
(assert (= temp10401_33 #x0000000000000001))
(assert (= var9576925 temp10401_33))
(assert (= var9576937 var9576925))
(assert (= temp10401_35 #x0000000000000002))
(assert (= temp10401_34 temp10401_35))
(assert (= temp10401_37 #x0000000000000002))
(assert (= temp10401_36 temp10401_37))
(model-add temp10401_1 () (_ BitVec 64) #x0000000000000001)
(model-add var80340 () (_ BitVec 64) #x0000000000000001)
(model-del k!0)
(model-add ARGNAME_dims_self_NAMEEND_LEN
           ()
           (_ BitVec 64)
           (ite k!0
                ARGNAME_dims_other_NAMEEND_LEN
                (bvnot ARGNAME_dims_other_NAMEEND_LEN)))




